% данные серверов из физического датацентра - из CPU, RAM, Disk size
existingVMs = [ vmN1, vmN2, vmN3, vmN4, vmN5, vmN6, vmN7, vmN8, vmN9, vmN11, vmN12, vmN13, vmN14, vmN15, vmN17, vmN18, vmN19, vmN20, vmN21, vmN22, vmN23, vmN24, vmN25, vmN26, vmN27, vmN28, vmN29, vmN30, vmN31, vmN32, vmN35, vmN36, vmN37, vmN38, vmN39, vmN40, vmN41, vmN42, vmN43, vmN44, vmN45, vmN46, vmN47, vmN48, vmN49, vmN50, vmN51, vmN52, vmN53, vmN54, vmN55, vmN56, vmN57, vmN58, vmN59, vmN61, vmN62, vmN63, vmN64, vmN65, vmN66, vmN67, vmN68, vmN69, vmN70, vmN71, vmN72, vmN73, vmN74, vmN75, vmN76, vmN77, vmN78, vmN79, vmN80, vmN81, vmN82, vmN83, vmN84, vmN85, vmN86, vmN87 ];
vmCPU = [ 2, 2, 2, 6, 3, 2, 2, 3, 2, 2, 3, 4, 2, 10, 1, 3, 5, 5, 4, 2, 2, 2, 2, 2, 2, 2, 2, 2, 8, 7, 5, 2, 2, 2, 2, 5, 2, 6, 6, 7, 2, 2, 2, 2, 8, 6, 2, 5, 6, 3, 8, 1, 3, 2, 2, 4, 8, 2, 2, 2, 2, 6, 2, 2, 2, 2, 4, 2, 6, 3, 2, 2, 8, 3, 2, 4, 4, 2, 1, 3, 2, 2 ];
vmRAM = [ 1200, 2400, 400, 2300, 1600, 3200, 700, 3200, 800, 400, 4600, 800, 1600, 2700, 2000, 2500, 3000, 3500, 4800, 2900, 2900, 2900, 2900, 2900, 2900, 2900, 2900, 2900, 9000, 18000, 4800, 2600, 2600, 2600, 2600, 5000, 3200, 6000, 5800, 9800, 1500, 400, 400, 400, 2000, 3200, 3200, 2000, 5000, 4000, 4600, 2000, 1600, 1000, 1000, 3500, 7000, 1500, 1500, 1500, 1500, 16000, 400, 2000, 3100, 3100, 2400, 3200, 5000, 6500, 1600, 400, 3600, 5000, 1100, 2400, 3000, 1600, 1600, 2400, 2000, 3200 ];
vmDisk = [ 460, 1440, 110, 260, 1120, 200, 267, 134, 213, 77, 150, 208, 578, 525, 20, 450, 545, 380, 402, 163, 163, 163, 163, 163, 163, 163, 163, 163, 6431, 1722, 249, 224, 224, 224, 224, 4675, 200, 380, 336, 296, 574, 77, 77, 149, 426, 120, 2509, 273, 419, 237, 2267, 20, 149, 149, 149, 170, 2882, 151, 151, 151, 151, 1328, 110, 245, 225, 225, 3036, 200, 287, 153, 150, 77, 650, 800, 148, 1862, 539, 181, 2601, 244, 3466, 200 ];     
vmCpuToRamRatio = [ 6, 14, 2, 4, 6, 16, 4, 11, 4, 2, 16, 2, 8, 4, 21, 10, 6, 7, 14, 16, 16, 16, 16, 16, 16, 16, 16, 16, 14, 28, 10, 14, 14, 14, 14, 10, 16, 10, 10, 14, 8, 2, 2, 2, 4, 6, 16, 4, 10, 14, 6, 21, 6, 6, 6, 10, 10, 8, 8, 8, 8, 28, 2, 10, 16, 16, 6, 16, 10, 22, 8, 2, 6, 19, 6, 6, 8, 8, 16, 8, 10, 16 ];

% данные о различных размерах виртуальных машин из Azure eastus2, включая их ACU
vmSizes = [Standard_A1_v2, Standard_A2m_v2, Standard_A2_v2, Standard_A4m_v2, Standard_A4_v2, Standard_A8m_v2, Standard_A8_v2, Standard_D1, Standard_D11, Standard_D11_v2, Standard_D12, Standard_D12_v2, Standard_D13, Standard_D13_v2, Standard_D14, Standard_D14_v2, Standard_D15_v2, Standard_D16ds_v4, Standard_D16d_v4, Standard_D16s_v3, Standard_D16s_v4, Standard_D16_v3, Standard_D16_v4, Standard_D1_v2, Standard_D2, Standard_D2ds_v4, 
Standard_D2d_v4, Standard_D2s_v3, Standard_D2s_v4, Standard_D2_v2, Standard_D2_v3, Standard_D2_v4, Standard_D3, Standard_D32ds_v4, Standard_D32d_v4, Standard_D32s_v3, Standard_D32s_v4, Standard_D32_v3, Standard_D32_v4, Standard_D3_v2, Standard_D4, Standard_D48ds_v4, Standard_D48d_v4, Standard_D48s_v3, Standard_D48s_v4, Standard_D48_v3, Standard_D48_v4, Standard_D4ds_v4, Standard_D4d_v4, Standard_D4s_v3, Standard_D4s_v4, Standard_D4_v2, Standard_D4_v3, Standard_D4_v4, Standard_D5_v2, Standard_D64ds_v4, Standard_D64d_v4, Standard_D64s_v3, Standard_D64s_v4, Standard_D64_v3, Standard_D64_v4, Standard_D8ds_v4, Standard_D8d_v4, Standard_D8s_v3, Standard_D8s_v4, Standard_D8_v3, Standard_D8_v4, Standard_DS1, Standard_DS11, Standard_DS11_1_v2, Standard_DS11_v2, Standard_DS12, Standard_DS12_1_v2, Standard_DS12_2_v2, Standard_DS12_v2, Standard_DS13, Standard_DS13_2_v2, Standard_DS13_4_v2, Standard_DS13_v2, Standard_DS14, Standard_DS14_4_v2, Standard_DS14_8_v2, Standard_DS14_v2, Standard_DS15_v2, Standard_DS1_v2, Standard_DS2, Standard_DS2_v2, Standard_DS3, Standard_DS3_v2, Standard_DS4, Standard_DS4_v2, Standard_DS5_v2, Standard_E16_4as_v4, Standard_E16_4ds_v4, Standard_E16_4s_v3, Standard_E16_4s_v4, Standard_E16_8as_v4, Standard_E16_8ds_v4, Standard_E16_8s_v3, Standard_E16_8s_v4, Standard_E16ds_v4, Standard_E16d_v4, Standard_E16s_v3, Standard_E16s_v4, Standard_E16_v3, Standard_E16_v4, Standard_E20ds_v4, Standard_E20d_v4, Standard_E20s_v3, Standard_E20s_v4, Standard_E20_v3, Standard_E20_v4, Standard_E2ds_v4, Standard_E2d_v4, Standard_E2s_v3, Standard_E2s_v4, Standard_E2_v3, Standard_E2_v4, Standard_E32_16as_v4, Standard_E32_16ds_v4, Standard_E32_16s_v3, Standard_E32_16s_v4, Standard_E32_8as_v4, Standard_E32_8ds_v4, Standard_E32_8s_v3, Standard_E32_8s_v4, Standard_E32ds_v4, Standard_E32d_v4, Standard_E32s_v3, Standard_E32s_v4, Standard_E32_v3, Standard_E32_v4, Standard_E4_2as_v4, Standard_E4_2ds_v4, Standard_E4_2s_v3, Standard_E4_2s_v4, Standard_E48ds_v4, Standard_E48d_v4, Standard_E48s_v3, Standard_E48s_v4, Standard_E48_v3, Standard_E48_v4, Standard_E4ds_v4, Standard_E4d_v4, Standard_E4s_v3, Standard_E4s_v4, Standard_E4_v3, Standard_E4_v4, Standard_E64_16as_v4, Standard_E64_16ds_v4, Standard_E64_16s_v3, Standard_E64_16s_v4, Standard_E64_32as_v4, Standard_E64_32ds_v4, Standard_E64_32s_v3, Standard_E64_32s_v4, Standard_E64ds_v4, Standard_E64d_v4, Standard_E64is_v3, Standard_E64i_v3, Standard_E64s_v3, Standard_E64s_v4, Standard_E64_v3, Standard_E64_v4, Standard_E8_2as_v4, Standard_E8_2ds_v4, Standard_E8_2s_v3, Standard_E8_2s_v4, Standard_E8_4as_v4, Standard_E8_4ds_v4, Standard_E8_4s_v3, Standard_E8_4s_v4, Standard_E8ds_v4, Standard_E8d_v4, Standard_E8s_v3, Standard_E8s_v4, Standard_E8_v3, Standard_E8_v4, Standard_E96_24as_v4, Standard_E96_48as_v4, Standard_F1, Standard_F16, Standard_F16s, Standard_F16s_v2, Standard_F1s, Standard_F2, Standard_F2s, Standard_F2s_v2, Standard_F32s_v2, Standard_F4, Standard_F48s_v2, Standard_F4s, Standard_F4s_v2, Standard_F64s_v2, Standard_F72s_v2, Standard_F8, Standard_F8s, Standard_F8s_v2, Standard_G1, Standard_G2, Standard_G3, Standard_G4, Standard_G5, Standard_GS1, Standard_GS2, Standard_GS3, Standard_GS4, Standard_GS4_4, Standard_GS4_8, Standard_GS5, Standard_GS5_16, Standard_GS5_8, Standard_L16s, Standard_L32s, Standard_L4s, Standard_L8s, Standard_M128, Standard_M128_32ms, Standard_M128_64ms, Standard_M128m, Standard_M128ms, Standard_M128s, Standard_M16_4ms, Standard_M16_8ms, Standard_M16ms, Standard_M32_16ms, Standard_M32_8ms, Standard_M32ls, Standard_M32ms, Standard_M32ts, Standard_M64, Standard_M64_16ms, Standard_M64_32ms, Standard_M64ls, Standard_M64m, Standard_M64ms, Standard_M64s, Standard_M8_2ms, Standard_M8_4ms, Standard_M8ms];
vmSizeCPU = [1, 2, 2, 4, 4, 8, 8, 1, 2, 2, 4, 4, 8, 8, 16, 16, 20, 16, 16, 16, 16, 16, 16, 1, 2, 2, 2, 2, 2, 2, 2, 2, 4, 32, 32, 32, 32, 32, 32, 4, 8, 48, 48, 48, 48, 48, 48, 4, 4, 4, 4, 8, 4, 4, 16, 64, 64, 64, 64, 64, 64, 8, 8, 8, 8, 8, 8, 1, 2, 2, 2, 4, 4, 4, 4, 8, 8, 8, 8, 16, 16, 16, 16, 20, 1, 2, 2, 4, 4, 8, 8, 16, 16, 16, 16, 16, 16, 16, 16, 16, 16, 16, 16, 16, 16, 16, 20, 20, 20, 20, 20, 20, 2, 2, 2, 2, 2, 2, 32, 32, 32, 32, 32, 32, 32, 32, 32, 32, 32, 32, 32, 32, 4, 4, 4, 4, 48, 48, 48, 48, 48, 48, 4, 4, 4, 4, 4, 4, 64, 64, 64, 64, 64, 64, 64, 64, 64, 64, 64, 64, 64, 64, 64, 64, 8, 8, 8, 8, 8, 8, 8, 8, 8, 8, 8, 8, 8, 8, 96, 96, 1, 16, 16, 16, 1, 2, 2, 2, 32, 4, 48, 4, 4, 64, 72, 8, 8, 8, 2, 4, 8, 16, 32, 2, 4, 8, 16, 16, 16, 32, 32, 32, 16, 32, 4, 8, 128, 128, 128, 128, 128, 128, 16, 16, 16, 32, 32, 32, 32, 32, 64, 64, 64, 64, 64, 64, 64, 8, 8, 8];
vmSizeRAM = [200, 1600, 400, 3200, 800, 6400, 1600, 350, 1400, 1400, 2800, 2800, 5600, 5600, 11200, 11200, 14000, 6400, 6400, 6400, 6400, 6400, 6400, 350, 700, 800, 800, 800, 800, 700, 800, 800, 1400, 12800, 12800, 12800, 12800, 12800, 12800, 1400, 2800, 19200, 19200, 19200, 19200, 19200, 19200, 1600, 1600, 1600, 1600, 2800, 1600, 1600, 5600, 25600, 25600, 25600, 25600, 25600, 25600, 3200, 3200, 3200, 3200, 3200, 3200, 350, 1400, 1400, 1400, 2800, 2800, 2800, 2800, 5600, 5600, 5600, 5600, 11200, 11200, 11200, 11200, 14000, 350, 700, 700, 1400, 1400, 2800, 2800, 5600, 12800, 12800, 12800, 12800, 12800, 12800, 12800, 12800, 12800, 12800, 12800, 12800, 12800, 12800, 16000, 16000, 16000, 16000, 16000, 16000, 1600, 1600, 1600, 1600, 1600, 1600, 25600, 25600, 25600, 25600, 25600, 25600, 25600, 25600, 25600, 25600, 25600, 25600, 25600, 25600, 3200, 3200, 3200, 3200, 38400, 38400, 38400, 38400, 38400, 38400, 3200, 3200, 3200, 3200, 3200, 3200, 51200, 50400, 43200, 50400, 51200, 50400, 43200, 50400, 50400, 50400, 43200, 43200, 43200, 50400, 43200, 50400, 6400, 6400, 6400, 6400, 6400, 6400, 6400, 6400, 6400, 6400, 6400, 6400, 6400, 6400, 67200, 67200, 200, 3200, 3200, 3200, 200, 400, 400, 400, 6400, 800, 9600, 800, 800, 12800, 14400, 1600, 1600, 1600, 2800, 5600, 11200, 22400, 44800, 2800, 5600, 11200, 22400, 22400, 22400, 44800, 44800, 44800, 12800, 25600, 3200, 6400, 200000, 380000, 380000, 380000, 380000, 200000, 43750, 43750, 43750, 87500, 87500, 25600, 87500, 19200, 100000, 175000, 175000, 51200, 175000, 175000, 100000, 21875, 21875, 21875];
vmSizePrice = [650, 1800, 1360, 3780, 2860, 7940, 6000, 1300, 2430, 2430, 4860, 4860, 9720, 9720, 19440, 19440, 24300, 16400, 16400, 15040, 15040, 15040, 15040, 1170, 2600, 2050, 2050, 1880, 1880, 2340, 1880, 1880, 5200, 32800, 32800, 30080, 30080, 30080, 30080, 4680, 10400, 49200, 49200, 45120, 45120, 45120, 45120, 4100, 4100, 3760, 3760, 9360, 3760, 3760, 18720, 65600, 65600, 60160, 60160, 60160, 60160, 8200, 8200, 7520, 7520, 7520, 7520, 1300, 2430, 2430, 2430, 4860, 4860, 4860, 4860, 9720, 9720, 9720, 9720, 19440, 19440, 19440, 19440, 24300, 1170, 2600, 2340, 5200, 4680, 10400, 9360, 18720, 17440, 18880, 18000, 17440, 17440, 18880, 18000, 17440, 18880, 18880, 18000, 17440, 18000, 17440, 23600, 23600, 24800, 21800, 24800, 21800, 2360, 2360, 2250, 2180, 2250, 2180, 34880, 37760, 36000, 34880, 34880, 37760, 36000, 34880, 37760, 37760, 36000, 34880, 36000, 34880, 4360, 4720, 4500, 4360, 56640, 56640, 52320, 52320, 52320, 52320, 4720, 4720, 4500, 4360, 4500, 4360, 69760, 75520, 65730, 69760, 69760, 75520, 65730, 69760, 75520, 75520, 65730, 65730, 65730, 69760, 65730, 69760, 8720, 9440, 9000, 8720, 8720, 9440, 9000, 8720, 9440, 9440, 9000, 8720, 9000, 8720, 104640, 104640, 957, 15320, 15320, 13020, 957, 1920, 1920, 1630, 26040, 3830, 42400, 3830, 3260, 52090, 58600, 7660, 7660, 6510, 6100, 12200, 24400, 48800, 87800, 6100, 12200, 24400, 48800, 48800, 48800, 87800, 87800, 87800, 21820, 43650, 5460, 10910, 192260, 358140, 358140, 358140, 358140, 192260, 42138, 42138, 42138, 84276, 84276, 43450, 84276, 41790, 96130, 146410, 146410, 83590, 146410, 146410, 96130, 21069, 21069, 21069];
vmSizeACU = [100, 100, 100, 100, 100, 100, 100, 160, 160, 210, 160, 210, 160, 210, 160, 210, 210, 195, 195, 160, 195, 160, 195, 210, 160, 195, 195, 160, 195, 210, 160, 195, 160, 195, 195, 160, 195, 160, 195, 210, 160, 195, 195, 160, 195, 160, 195, 195, 195, 160, 195, 210, 160, 195, 210, 195, 195, 160, 195, 160, 195, 195, 195, 160, 195, 160, 195, 160, 160, 210, 210, 160, 210, 210, 210, 160, 210, 210, 210, 160, 210, 210, 210, 210, 210, 160, 210, 160, 210, 160, 210, 210, 230, 195, 160, 195, 230, 195, 160, 195, 195, 195, 160, 195, 160, 195, 195, 195, 160, 195, 160, 195, 195, 195, 160, 195, 160, 195, 230, 195, 160, 195, 230, 195, 160, 195, 195, 195, 160, 195, 160, 195, 230, 195, 160, 195, 195, 195, 160, 195, 160, 195, 195, 195, 160, 195, 160, 195, 230, 195, 160, 195, 230, 195, 160, 195, 195, 195, 160, 160, 160, 195, 160, 195, 230, 195, 160, 195, 230, 195, 160, 195, 195, 195, 160, 195, 160, 195, 230, 230, 210, 210, 210, 195, 210, 210, 210, 195, 195, 210, 195, 210, 195, 195, 195, 210, 210, 195, 180, 180, 180, 180, 180, 180, 180, 180, 180, 180, 180, 180, 180, 180, 180, 180, 180, 180, 160, 160, 160, 160, 160, 160, 160, 160, 160, 160, 160, 160, 160, 160, 160, 160, 160, 160, 160, 160, 160, 160, 160, 160];
vmSizeCpuToRamRatio = [2, 8, 2, 8, 2, 8, 2, 4, 7, 7, 7, 7, 7, 7, 7, 7, 7, 4, 4, 4, 4, 4, 4, 4, 4, 4, 4, 4, 4, 4, 4, 4, 4, 4, 4, 4, 4, 4, 4, 4, 4, 4, 4, 4, 4, 4, 4, 4, 4, 4, 4, 4, 4, 4, 4, 4, 4, 4, 4, 4, 4, 4, 4, 4, 4, 4, 4, 4, 7, 7, 7, 7, 7, 7, 7, 7, 7, 7, 7, 7, 7, 7, 7, 7, 4, 4, 4, 4, 4, 4, 4, 4, 8, 8, 8, 8, 8, 8, 8, 8, 8, 8, 8, 8, 8, 8, 8, 8, 8, 8, 8, 8, 8, 8, 8, 8, 8, 8, 8, 8, 8, 8, 8, 8, 8, 8, 8, 8, 8, 8, 8, 8, 8, 8, 8, 8, 8, 8, 8, 8, 8, 8, 8, 8, 8, 8, 8, 8, 8, 8, 7, 8, 8, 8, 7, 8, 8, 8, 7, 7, 7, 8, 7, 8, 8, 8, 8, 8, 8, 8, 8, 8, 8, 8, 8, 8, 8, 8, 7, 7, 2, 2, 2, 2, 2, 2, 2, 2, 2, 2, 2, 2, 2, 2, 2, 2, 2, 2, 14, 14, 14, 14, 14, 14, 14, 14, 14, 14, 14, 14, 14, 14, 8, 8, 8, 8, 16, 30, 30, 30, 30, 16, 28, 28, 28, 28, 28, 8, 28, 6, 16, 28, 28, 8, 28, 28, 16, 28, 28, 28];

% данные о различных размерах дисков из Azure eastus2
vmDisks = {E1, E2, E3, E4, E6, E10, E15, E20, E30, E40, E50, E60, E70, E80};
vmDiskSizes = [4, 8, 16, 32, 64, 128, 256, 512, 1024, 2048, 4096, 8192, 16384, 32767];
% vmDiskPrice = [0.30, 0.60, 1.20, 2.40, 4.80, 9.60, 19.20, 38.40, 76.80, 153.60, 307.20, 614.40, 1228.80, 2457.60]; % this is Price per month
